instances/p2/p2_15_3-2.dzn
Alphabet = {A,C,G,T};
ns = 15;
nc = 3;
neighbours = [| Null,Null,Null | I(C),Null,Null | I(C),I(T),I(A) | I(G),Null,Null | I(C),Null,Null | I(T),I(A),I(T) | Null,Null,Null | I(A),Null,Null | I(C),I(G),Null | I(G),I(T),I(G) | I(A),Null,Null | I(G),Null,Null | I(C),I(C),Null | I(A),I(A),Null | I(T),I(A),I(T) |];
