instances/p2/p2_15_3-2.txt
{
	"num_strings": 15,
	"alphabet": "ACGT",
	"strings": [
		"",
		"C",
		"CTA",
		"G",
		"C",
		"TAT",
		"",
		"A",
		"CG",
		"GTG",
		"A",
		"G",
		"CC",
		"AA",
		"TAT"
	],
	"str_length":[0,1,3,1,1,3,0,1,2,3,1,1,2,2,3]
}